NAME : Singapore Marina Bay
COMMENT : O-Mopsi
TYPE : TSP
DIMENSION : 12
EDGE_WEIGHT_TYPE : HVS
NODE_COORD_SECTION
1 103.854211397387 1.286432135241
2 103.85650275739 1.281143156341
3 103.85564419937 1.289233952954
4 103.852495622457 1.286292073692
5 103.860548532882 1.287937440662
6 103.859619986 1.286474882931
7 103.860204120611 1.288943101024
8 103.85569742444 1.279963487735
9 103.8585757689 1.283697624185
10 103.853008008 1.283776581683
11 103.85378517777 1.290083290881
12 103.85877643158 1.284861367181
EOF